JulietBench/Juliet_Based_Patch_Bench/linux/CWE-189-Numeric-Errors/CVE_2010_4529_fdac1e0697356ac212259f2147aa60c72e334861/solverirda_getsockopt_Snippet.smt2
; benchmark generated from python API
(set-info :status unknown)
(declare-fun R () (_ BitVec 32))
(declare-fun rdi () (_ BitVec 64))
(assert
 (let (($x54 (= (_ bv4294967274 32) R)))
 (let ((?x6 ((_ extract 31 0) rdi)))
 (let (($x11 (bvsgt (_ bv2 32) ?x6)))
 (let (($x55 (and $x11 $x54)))
 (let (($x51 (= (_ bv2 32) R)))
 (let (($x30 (bvsle (_ bv2 32) ?x6)))
 (let (($x52 (and $x30 $x51)))
 (let (($x56 (or $x52 $x55)))
 (let (($x59 (not $x56)))
 (let (($x58 (and (distinct (_ bv2 32) R) true)))
 (let (($x60 (and $x58 $x59)))
 (let (($x57 (and $x51 $x56)))
 (let (($x61 (or $x57 $x60)))
 (not $x61)))))))))))))))
(check-sat)
